CN = 1800;         % Capacidad nuclear
CT = 3200;         % Capacidad térmica
CH = 900;          % Capacidad hidroeléctrica
m = 8;             % Cantidad de clientes
n = 6;             % Cantidad de días a planificar
CPN = 7;           % Costo de producción de la central nuclear
CPT = 9;           % Costo de producción de la central térmica
CPH = 5;           % Costo de producción de la central hidroeléctrica
RM = 0.75;         % Porcentaje de requerimiento mínimo
RA=3;
PRA=0.7;
P = [150, 220, 75, 100, 190, 175, 125, 60];  % Pagos de clientes

% Matriz de demanda diaria
d = [|240,160,180,280,210,150|
    310,190,195,230,270,205|
    260,130,240,250,260,200|
    180,240,220,180,170,200|
    280,140,190,290,270,160|
    250,170,185,210,220,175|
    190,200,195,180,170,190|
    220,140,220,210,250,185|];
